language ESSENCE' 1.0

letting n_classes be 24
letting n_options be 5
letting n_cars be 200
letting quantity_Function1D be
        [3, 3, 35, 14, 4, 3, 22, 1, 2, 3, 3, 9, 1, 2, 11, 4, 4, 33, 14, 5, 16, 2, 3, 3; int(1..24)]
letting usage_RelationAsSet_Explicit_1 be
        [1, 1, 1, 2, 2, 3, 4, 4, 5, 5, 5, 6, 6, 7, 8, 8, 8, 9, 9, 9, 10, 10, 10, 11, 11, 11, 12, 12, 13, 13, 13, 13, 14,
         14, 15, 16, 16, 17, 17, 17, 18, 19, 19, 20, 20, 21, 22, 22, 22, 23, 23, 23, 24, 24;
             int(1..54)]
letting usage_RelationAsSet_Explicit_2 be
        [2, 4, 5, 2, 3, 1, 1, 2, 1, 3, 4, 1, 5, 4, 3, 4, 5, 1, 2, 3, 2, 3, 4, 1, 4, 5, 1, 3, 1, 2, 3, 4, 3, 5, 5, 1, 4,
         1, 2, 4, 2, 2, 4, 3, 4, 3, 2, 3, 5, 1, 2, 5, 2, 5;
             int(1..54)]
letting blksize_Function1D be [2, 3, 3, 5, 5; int(1..5)]
letting maxcars_Function1D be [1, 2, 1, 2, 1; int(1..5)]
letting fin1 be 24
letting fin2 be 35
letting fin3 be 5
letting fin4 be 2
letting fin5 be 5
letting fin6 be 5
letting fin7 be 54
